
--- Job bchfcnet.gms Start 02/08/22 12:29:03 34.3.0 rac355f3 WEX-WEI x86 64bit/MS Windows
--- Applying:
    C:\GAMS\34\gmsprmNT.txt
--- GAMS Parameters defined
    Input C:\Users\dekhi\Desktop\gamsworld\FCNetLib\test\bchfcnet.gms
    PageSize 0
    ScrDir C:\Users\dekhi\Desktop\gamsworld\FCNetLib\test\225a\
    SysDir C:\GAMS\34\
    LogOption 3
    ErrMsg 1
    ErrorLog 99
    IDE 1
    ResLim 3600
    LstTitleLeftAligned 1
Licensee: Eval License                                   S211214|0002AW-GEN
          Ostfalia Hochschule fuer angewandte Wissenschaften        DCE1645
          C:\Users\dekhi\Documents\GAMS\gamslice.txt
          License Admin: Mohamed Ali Dekhil, dekhil.medali@gmail.com       
          Evaluation license: Not for commercial or production use
GAMS 34.3.0   Copyright (C) 1987-2021 GAMS Development. All rights reserved
--- Starting compilation
--- bchfcnet.gms(34) 2 Mb
--- . decl.gms(15) 2 Mb
--- bchfcnet.gms(38) 2 Mb
--- . g200x740e.inc(1656) 3 Mb
--- bchfcnet.gms(67) 3 Mb
--- . equs.gms(20) 3 Mb
--- bchfcnet.gms(97) 3 Mb
--- call rm -f bchout_i.gdx startcut.txt startheur.txt cuthist.gdx agap.txt rgap.txt cntfail.txt
--- bchfcnet.gms(118) 3 Mb
--- Starting execution: elapsed 0:00:00.083
--- bchfcnet.gms(1714) 4 Mb
--- GDX File (execute_unload) C:\Users\dekhi\Desktop\gamsworld\FCNetLib\test\net.gdx
--- bchfcnet.gms(1805) 4 Mb
--- GDXin=C:\Users\dekhi\Desktop\gamsworld\FCNetLib\test\points\g200x740e.gdx
--- GDX File (execute_load) C:\Users\dekhi\Desktop\gamsworld\FCNetLib\test\points\g200x740e.gdx
--- Generating MIP model master
--- bchfcnet.gms(1809) 5 Mb
---   941 rows  1,481 columns  4,441 non-zeroes
---   740 discrete-columns
--- Executing CPLEX (Solvelink=2): elapsed 0:00:00.122

IBM ILOG CPLEX   34.3.0 rac355f3 Released Feb 25, 2021 WEI x86 64bit/MS Window

--- GAMS/Cplex Link licensed for continuous and discrete problems.

Reading parameter(s) from "C:\Users\dekhi\Desktop\gamsworld\FCNetLib\test\cplex.op2"
>>  mipstart 1
Finished reading from "C:\Users\dekhi\Desktop\gamsworld\FCNetLib\test\cplex.op2"

--- Space for names approximately 0.05 Mb
--- Use option 'names no' to turn use of names off
--- GMO memory 0.78 Mb (peak 0.79 Mb)
--- Dictionary memory 0.00 Mb
--- Cplex 20.1.0.0 link memory 0.04 Mb (peak 0.16 Mb)
--- Starting Cplex

Version identifier: 20.1.0.0 | 2020-11-10 | 9bedb6d68
CPXPARAM_Threads                                 1
CPXPARAM_MIP_Display                             4
CPXPARAM_TimeLimit                               3600
CPXPARAM_MIP_Tolerances_AbsMIPGap                0
CPXPARAM_MIP_Tolerances_MIPGap                   0
Generic callback                                 0x50
Processing 1 MIP starts.
MIP start 'm1' defined solution with objective 600396.0000.
1 of 1 MIP starts provided solutions.
MIP start 'm1' defined initial solution with objective 600396.0000.
Tried aggregator 2 times.
MIP Presolve eliminated 200 rows and 3 columns.
MIP Presolve added 397 rows and 0 columns.
Aggregator did 1 substitutions.
Reduced MIP has 1136 rows, 1477 columns, and 3351 nonzeros.
Reduced MIP has 739 binaries, 0 generals, 0 SOSs, and 0 indicators.
Presolve time = 0.00 sec. (7.62 ticks)
Probing fixed 0 vars, tightened 5 bounds.
Probing time = 0.00 sec. (0.20 ticks)
Tried aggregator 1 time.
Detecting symmetries...
MIP Presolve modified 11 coefficients.
Reduced MIP has 1136 rows, 1477 columns, and 3351 nonzeros.
Reduced MIP has 739 binaries, 0 generals, 0 SOSs, and 0 indicators.
Presolve time = 0.01 sec. (5.86 ticks)
Probing time = 0.00 sec. (0.20 ticks)
Clique table members: 6.
MIP emphasis: balance optimality and feasibility.
MIP search method: dynamic search.
Parallel mode: none, using 1 thread.
Tried aggregator 1 time.
LP Presolve eliminated 540 rows and 541 columns.
Aggregator did 199 substitutions.
Reduced LP has 397 rows, 737 columns, and 1870 nonzeros.
Presolve time = 0.00 sec. (0.86 ticks)

Iteration log . . .
Iteration:     1   Dual objective     =         90384.000000
Iteration:    62   Dual objective     =        393024.258100
Iteration:   124   Dual objective     =        501776.647400
Iteration:   196   Dual objective     =        558132.238900
Initializing dual steep norms . . .
Root relaxation solution time = 0.00 sec. (3.79 ticks)

        Nodes                                         Cuts/
   Node  Left     Objective  IInf  Best Integer    Best Bound    ItCnt     Gap

*     0+    0                       600396.0000    90000.0000            85.01%
Found incumbent of value 600396.000000 after 0.03 sec. (19.90 ticks)
      0     0   559469.2194   183   600396.0000   559469.2194      212    6.82%
      0     0   592485.7712   216   600396.0000     Cuts: 384      564    1.32%
      0     0   596606.6451   159   600396.0000     Cuts: 344      711    0.63%
      0     0   598110.6798   151   600396.0000     Cuts: 211      810    0.38%
      0     0   598880.3409   124   600396.0000     Cuts: 181      900    0.25%
      0     0   599314.5821    97   600396.0000      Cuts: 87      961    0.18%
Detecting symmetries...
      0     0   599588.0365    87   600396.0000      Cuts: 95     1007    0.13%
      0     0   599707.8988    86   600396.0000      Cuts: 82     1052    0.11%
      0     0   599905.5053    55   600396.0000      Cuts: 66     1093    0.08%
      0     0   599975.1540    45   600396.0000      Cuts: 85     1130    0.07%
      0     0   599987.9879    57   600396.0000      Cuts: 30     1164    0.07%
      0     0   600018.6126    46   600396.0000      Cuts: 31     1190    0.06%
      0     0   600173.6462    42   600396.0000      Cuts: 52     1217    0.04%
      0     0   600181.9403    50   600396.0000      Cuts: 20     1233    0.04%
Detecting symmetries...
      0     2   600181.9403    50   600396.0000   600183.2129     1233    0.04%
Elapsed time = 0.31 sec. (294.68 ticks, tree = 0.01 MB, solutions = 1)

Cover cuts applied:  130
Implied bound cuts applied:  17
Flow cuts applied:  292
Mixed integer rounding cuts applied:  43
Flow path cuts applied:  74
Lift and project cuts applied:  3
Gomory fractional cuts applied:  96

Root node processing (before b&c):
  Real time             =    0.31 sec. (294.65 ticks)
Sequential b&c:
  Real time             =    0.09 sec. (91.22 ticks)
                          ------------
Total (root+branch&cut) =    0.41 sec. (385.87 ticks)

--- MIP status (101): integer optimal solution.
--- Cplex Time: 0.41sec (det. 385.88 ticks)

--- Fixing integer variables and solving final LP...

Version identifier: 20.1.0.0 | 2020-11-10 | 9bedb6d68
CPXPARAM_Advance                                 2
CPXPARAM_Threads                                 1
CPXPARAM_MIP_Display                             4
CPXPARAM_TimeLimit                               3600
CPXPARAM_MIP_Tolerances_AbsMIPGap                0
CPXPARAM_MIP_Tolerances_MIPGap                   0
Tried aggregator 1 time.
LP Presolve eliminated 940 rows and 1481 columns.
All rows and columns eliminated.
Presolve time = 0.00 sec. (0.56 ticks)

--- Fixed MIP status (1): optimal.
--- Cplex Time: 0.02sec (det. 0.96 ticks)


Proven optimal solution
MIP Solution:       600396.000000    (1743 iterations, 77 nodes)
Final Solve:        600396.000000    (0 iterations)

Best possible:      600396.000000
Absolute gap:            0.000000
Relative gap:            0.000000

--- Reading solution for model master
*** Status: Normal completion
--- Job bchfcnet.gms Stop 02/08/22 12:29:04 elapsed 0:00:00.568
